NAME : custom-n9-greedy-worst-case
COMMENT : ahreloco
TYPE : CVRP
DIMENSION : 9
EDGE_WEIGHT_TYPE : EUC_2D
CAPACITY : 100
NODE_COORD_SECTION
 1 0 0
 2 30 30
 3 -40 30
 4 -40 -25
 5 30 -30
 6 20 25
 7 -30 25
 8 -30 -20
 9 20 -25
DEMAND_SECTION
1 0
2 50
3 50
4 50
5 40
6 40
7 40
8 20
9 20
DEPOT_SECTION
 1
 -1
EOF
